NAME: tsp15_3
COMMENT: 15-tsp problem (Padberg/Rinaldi)
TYPE: TSP
DIMENSION: 15
EDGE_WEIGHT_TYPE : EUC_2D
NODE_COORD_SECTION
1.00 38.44 16.22
2.00 0.62 38.24
3.00 26.59 22.76
4.00 13.79 34.83
5.00 35.93 34.72
6.00 18.17 33.58
7.00 11.96 37.18
8.00 19.95 10.82
9.00 33.01 7.01
10.00 5.00 8.66
11.00 23.14 30.69
12.00 32.87 26.70
13.00 17.31 33.49
14.00 32.83 32.47
15.00 14.55 9.39
